NAME : mEgtspf.pid16405.gtsp.241591990.tour
COMMENT : Length = 241591990
COMMENT : Found by LKH [Keld Helsgaun] Thu Apr  3 10:53:22 2025
TYPE : TOUR
DIMENSION : 105
TOUR_SECTION
1
10
8
22
87
88
89
86
42
43
44
45
69
66
67
68
50
51
52
53
15
11
25
101
98
99
100
37
34
35
36
14
65
62
63
64
46
47
48
49
21
90
91
92
93
18
17
80
81
78
79
2
82
83
84
85
19
3
7
13
12
73
70
71
72
24
75
76
77
74
95
96
97
94
16
29
26
27
28
33
30
31
32
23
59
60
61
58
5
102
103
104
105
54
55
56
57
9
6
4
20
40
41
38
39
-1
EOF
